c turning on binary mode checking
c parsing input formula with 259840 variables and 1039919 clauses
c finished parsing, read 3094840 bytes from proof file
c detected empty clause; start verification via backward checking
c 4353 of 1039919 clauses in core                            
c 1376 of 124128 lemmas in core using 37369 resolution steps
c 0 RAT lemmas in core; 182 redundant literals in core lemmas
s VERIFIED
c verification time: 1.257 seconds
